p cnf 554 414
c p distribution  0.875 0.125
c p distribution  0.875 0.125
c p distribution  0.875 0.125
c p distribution  0.875 0.125
c p distribution  0.875 0.125
c p distribution  0.875 0.125
c p distribution  0.875 0.125
c p distribution  0.875 0.125
c p distribution  0.875 0.125
c p distribution  0.875 0.125
c p distribution  0.875 0.125
c p distribution  0.875 0.125
c p distribution  0.875 0.125
c p distribution  0.875 0.125
c p distribution  0.875 0.125
c p distribution  0.875 0.125
c p distribution  0.875 0.125
c p distribution  0.875 0.125
c p distribution  0.875 0.125
c p distribution  0.875 0.125
c p distribution  0.875 0.125
c p distribution  0.875 0.125
c p distribution  0.875 0.125
c p distribution  0.875 0.125
c p distribution  0.875 0.125
c p distribution  0.875 0.125
c p distribution  0.875 0.125
c p distribution  0.875 0.125
c p distribution  0.875 0.125
c p distribution  0.875 0.125
c p distribution  0.875 0.125
c p distribution  0.875 0.125
c p distribution  0.875 0.125
c p distribution  0.875 0.125
c p distribution  0.875 0.125
c p distribution  0.875 0.125
c p distribution  0.875 0.125
c p distribution  0.875 0.125
c p distribution  0.875 0.125
c p distribution  0.875 0.125
c p distribution  0.875 0.125
c p distribution  0.875 0.125
c p distribution  0.875 0.125
c p distribution  0.875 0.125
c p distribution  0.875 0.125
c p distribution  0.875 0.125
c p distribution  0.875 0.125
c p distribution  0.875 0.125
c p distribution  0.875 0.125
c p distribution  0.875 0.125
c p distribution  0.875 0.125
c p distribution  0.875 0.125
c p distribution  0.875 0.125
c p distribution  0.875 0.125
c p distribution  0.875 0.125
c p distribution  0.875 0.125
c p distribution  0.875 0.125
c p distribution  0.875 0.125
c p distribution  0.875 0.125
c p distribution  0.875 0.125
c p distribution  0.875 0.125
c p distribution  0.875 0.125
c p distribution  0.875 0.125
c p distribution  0.875 0.125
c p distribution  0.875 0.125
c p distribution  0.875 0.125
c p distribution  0.875 0.125
c p distribution  0.875 0.125
c p distribution  0.875 0.125
c p distribution  0.875 0.125
c p distribution  0.875 0.125
c p distribution  0.875 0.125
c p distribution  0.875 0.125
c p distribution  0.875 0.125
c p distribution  0.875 0.125
c p distribution  0.875 0.125
c p distribution  0.875 0.125
c p distribution  0.875 0.125
c p distribution  0.875 0.125
c p distribution  0.875 0.125
c p distribution  0.875 0.125
c p distribution  0.875 0.125
c p distribution  0.875 0.125
c p distribution  0.875 0.125
c p distribution  0.875 0.125
c p distribution  0.875 0.125
c p distribution  0.875 0.125
c p distribution  0.875 0.125
c p distribution  0.875 0.125
c p distribution  0.875 0.125
c p distribution  0.875 0.125
c p distribution  0.875 0.125
c p distribution  0.875 0.125
c p distribution  0.875 0.125
c p distribution  0.875 0.125
c p distribution  0.875 0.125
c p distribution  0.875 0.125
c p distribution  0.875 0.125
c p distribution  0.875 0.125
c p distribution  0.875 0.125
c p distribution  0.875 0.125
c p distribution  0.875 0.125
c p distribution  0.875 0.125
c p distribution  0.875 0.125
c p distribution  0.875 0.125
c p distribution  0.875 0.125
c p distribution  0.875 0.125
c p distribution  0.875 0.125
c p distribution  0.875 0.125
c p distribution  0.875 0.125
c p distribution  0.875 0.125
c p distribution  0.875 0.125
c p distribution  0.875 0.125
c p distribution  0.875 0.125
c p distribution  0.875 0.125
c p distribution  0.875 0.125
c p distribution  0.875 0.125
c p distribution  0.875 0.125
c p distribution  0.875 0.125
c p distribution  0.875 0.125
c p distribution  0.875 0.125
c p distribution  0.875 0.125
c p distribution  0.875 0.125
c p distribution  0.875 0.125
c p distribution  0.875 0.125
c p distribution  0.875 0.125
c p distribution  0.875 0.125
c p distribution  0.875 0.125
c p distribution  0.875 0.125
c p distribution  0.875 0.125
c p distribution  0.875 0.125
c p distribution  0.875 0.125
c p distribution  0.875 0.125
c p distribution  0.875 0.125
c p distribution  0.875 0.125
c p distribution  0.875 0.125
c p distribution  0.875 0.125
c p distribution  0.875 0.125
c p distribution  0.875 0.125
c p distribution  0.875 0.125
c p distribution  0.875 0.125
c p distribution  0.875 0.125
c p distribution  0.875 0.125
c p distribution  0.875 0.125
c p distribution  0.875 0.125
c p distribution  0.875 0.125
c p distribution  0.875 0.125
c p distribution  0.875 0.125
c p distribution  0.875 0.125
c p distribution  0.875 0.125
c p distribution  0.875 0.125
c p distribution  0.875 0.125
c p distribution  0.875 0.125
c p distribution  0.875 0.125
c p distribution  0.875 0.125
c p distribution  0.875 0.125
c p distribution  0.875 0.125
c p distribution  0.875 0.125
c p distribution  0.875 0.125
c p distribution  0.875 0.125
c p distribution  0.875 0.125
c p distribution  0.875 0.125
c p distribution  0.875 0.125
c p distribution  0.875 0.125
c p distribution  0.875 0.125
c p distribution  0.875 0.125
c p distribution  0.875 0.125
c p distribution  0.875 0.125
c p distribution  0.875 0.125
c p distribution  0.875 0.125
c p distribution  0.875 0.125
c p distribution  0.875 0.125
c p distribution  0.875 0.125
c p distribution  0.875 0.125
c p distribution  0.875 0.125
c p distribution  0.875 0.125
c p distribution  0.875 0.125
c p distribution  0.875 0.125
c p distribution  0.875 0.125
c p distribution  0.875 0.125
c p distribution  0.875 0.125
c p distribution  0.875 0.125
c p distribution  0.875 0.125
c p distribution  0.875 0.125
c p distribution  0.875 0.125
c p distribution  0.875 0.125
c p distribution  0.875 0.125
c p distribution  0.875 0.125
c p distribution  0.875 0.125
c p distribution  0.875 0.125
c p distribution  0.875 0.125
c p distribution  0.875 0.125
c p distribution  0.875 0.125
c p distribution  0.875 0.125
c p distribution  0.875 0.125
c p distribution  0.875 0.125
c p distribution  0.875 0.125
c p distribution  0.875 0.125
c p distribution  0.875 0.125
c p distribution  0.875 0.125
c p distribution  0.875 0.125
c p distribution  0.875 0.125
c p distribution  0.875 0.125
c p distribution  0.875 0.125
c p distribution  0.875 0.125
c p distribution  0.875 0.125
527 0
-551 0
495 -434 -1 0
434 -495 -1 0
420 -470 -3 0
470 -420 -3 0
419 -521 -5 0
521 -419 -5 0
483 -421 -7 0
421 -483 -7 0
539 -456 -9 0
456 -539 -9 0
500 -428 -11 0
428 -500 -11 0
513 -443 -13 0
443 -513 -13 0
470 -427 -15 0
427 -470 -15 0
438 -447 -17 0
447 -438 -17 0
471 -499 -19 0
499 -471 -19 0
504 -549 -21 0
549 -504 -21 0
459 -537 -23 0
537 -459 -23 0
484 -535 -25 0
535 -484 -25 0
440 -447 -27 0
447 -440 -27 0
543 -443 -29 0
443 -543 -29 0
530 -537 -31 0
537 -530 -31 0
546 -551 -33 0
551 -546 -33 0
544 -514 -35 0
514 -544 -35 0
531 -552 -37 0
552 -531 -37 0
458 -423 -39 0
423 -458 -39 0
445 -435 -41 0
435 -445 -41 0
525 -450 -43 0
450 -525 -43 0
458 -542 -45 0
542 -458 -45 0
475 -522 -47 0
522 -475 -47 0
449 -478 -49 0
478 -449 -49 0
491 -415 -51 0
415 -491 -51 0
536 -417 -53 0
417 -536 -53 0
423 -472 -55 0
472 -423 -55 0
420 -470 -57 0
470 -420 -57 0
470 -517 -59 0
517 -470 -59 0
478 -430 -61 0
430 -478 -61 0
528 -474 -63 0
474 -528 -63 0
442 -552 -65 0
552 -442 -65 0
463 -542 -67 0
542 -463 -67 0
544 -422 -69 0
422 -544 -69 0
536 -432 -71 0
432 -536 -71 0
472 -542 -73 0
542 -472 -73 0
479 -524 -75 0
524 -479 -75 0
420 -455 -77 0
455 -420 -77 0
524 -467 -79 0
467 -524 -79 0
547 -522 -81 0
522 -547 -81 0
511 -476 -83 0
476 -511 -83 0
523 -441 -85 0
441 -523 -85 0
547 -475 -87 0
475 -547 -87 0
496 -418 -89 0
418 -496 -89 0
421 -470 -91 0
470 -421 -91 0
440 -513 -93 0
513 -440 -93 0
420 -454 -95 0
454 -420 -95 0
451 -488 -97 0
488 -451 -97 0
445 -503 -99 0
503 -445 -99 0
453 -417 -101 0
417 -453 -101 0
499 -464 -103 0
464 -499 -103 0
535 -497 -105 0
497 -535 -105 0
423 -533 -107 0
533 -423 -107 0
413 -488 -109 0
488 -413 -109 0
448 -521 -111 0
521 -448 -111 0
463 -489 -113 0
489 -463 -113 0
476 -418 -115 0
418 -476 -115 0
494 -428 -117 0
428 -494 -117 0
460 -522 -119 0
522 -460 -119 0
518 -424 -121 0
424 -518 -121 0
513 -443 -123 0
443 -513 -123 0
551 -524 -125 0
524 -551 -125 0
507 -431 -127 0
431 -507 -127 0
553 -516 -129 0
516 -553 -129 0
528 -493 -131 0
493 -528 -131 0
509 -527 -133 0
527 -509 -133 0
491 -506 -135 0
506 -491 -135 0
507 -527 -137 0
527 -507 -137 0
498 -452 -139 0
452 -498 -139 0
420 -483 -141 0
483 -420 -141 0
499 -464 -143 0
464 -499 -143 0
545 -532 -145 0
532 -545 -145 0
505 -498 -147 0
498 -505 -147 0
541 -457 -149 0
457 -541 -149 0
422 -504 -151 0
504 -422 -151 0
470 -480 -153 0
480 -470 -153 0
481 -489 -155 0
489 -481 -155 0
442 -552 -157 0
552 -442 -157 0
461 -478 -159 0
478 -461 -159 0
470 -501 -161 0
501 -470 -161 0
554 -540 -163 0
540 -554 -163 0
455 -441 -165 0
441 -455 -165 0
490 -458 -167 0
458 -490 -167 0
531 -552 -169 0
552 -531 -169 0
531 -482 -171 0
482 -531 -171 0
486 -416 -173 0
416 -486 -173 0
549 -464 -175 0
464 -549 -175 0
470 -523 -177 0
523 -470 -177 0
502 -534 -179 0
534 -502 -179 0
468 -541 -181 0
541 -468 -181 0
474 -493 -183 0
493 -474 -183 0
484 -549 -185 0
549 -484 -185 0
442 -497 -187 0
497 -442 -187 0
546 -551 -189 0
551 -546 -189 0
485 -432 -191 0
432 -485 -191 0
531 -482 -193 0
482 -531 -193 0
414 -530 -195 0
530 -414 -195 0
490 -446 -197 0
446 -490 -197 0
485 -536 -199 0
536 -485 -199 0
518 -486 -201 0
486 -518 -201 0
470 -427 -203 0
427 -470 -203 0
494 -428 -205 0
428 -494 -205 0
444 -417 -207 0
417 -444 -207 0
536 -453 -209 0
453 -536 -209 0
505 -467 -211 0
467 -505 -211 0
449 -513 -213 0
513 -449 -213 0
432 -444 -215 0
444 -432 -215 0
459 -414 -217 0
414 -459 -217 0
540 -472 -219 0
472 -540 -219 0
440 -537 -221 0
537 -440 -221 0
464 -434 -223 0
434 -464 -223 0
481 -489 -225 0
489 -481 -225 0
471 -550 -227 0
550 -471 -227 0
553 -549 -229 0
549 -553 -229 0
476 -418 -231 0
418 -476 -231 0
456 -415 -233 0
415 -456 -233 0
471 -526 -235 0
526 -471 -235 0
537 -529 -237 0
529 -537 -237 0
498 -547 -239 0
547 -498 -239 0
546 -413 -241 0
413 -546 -241 0
487 -416 -243 0
416 -487 -243 0
459 -480 -245 0
480 -459 -245 0
464 -499 -247 0
499 -464 -247 0
539 -433 -249 0
433 -539 -249 0
453 -444 -251 0
444 -453 -251 0
454 -498 -253 0
498 -454 -253 0
538 -456 -255 0
456 -538 -255 0
481 -550 -257 0
550 -481 -257 0
527 -473 -259 0
473 -527 -259 0
422 -514 -261 0
514 -422 -261 0
428 -500 -263 0
500 -428 -263 0
535 -497 -265 0
497 -535 -265 0
544 -543 -267 0
543 -544 -267 0
422 -462 -269 0
462 -422 -269 0
532 -426 -271 0
426 -532 -271 0
542 -525 -273 0
525 -542 -273 0
507 -527 -275 0
527 -507 -275 0
466 -519 -277 0
519 -466 -277 0
462 -429 -279 0
429 -462 -279 0
530 -447 -281 0
447 -530 -281 0
436 -537 -283 0
537 -436 -283 0
543 -443 -285 0
443 -543 -285 0
519 -413 -287 0
413 -519 -287 0
549 -495 -289 0
495 -549 -289 0
474 -520 -291 0
520 -474 -291 0
512 -433 -293 0
433 -512 -293 0
481 -489 -295 0
489 -481 -295 0
512 -485 -297 0
485 -512 -297 0
438 -510 -299 0
510 -438 -299 0
470 -452 -301 0
452 -470 -301 0
449 -419 -303 0
419 -449 -303 0
548 -477 -305 0
477 -548 -305 0
468 -457 -307 0
457 -468 -307 0
423 -437 -309 0
437 -423 -309 0
525 -465 -311 0
465 -525 -311 0
500 -516 -313 0
516 -500 -313 0
484 -435 -315 0
435 -484 -315 0
470 -469 -317 0
469 -470 -317 0
494 -508 -319 0
508 -494 -319 0
432 -417 -321 0
417 -432 -321 0
491 -415 -323 0
415 -491 -323 0
501 -469 -325 0
469 -501 -325 0
504 -549 -327 0
549 -504 -327 0
431 -429 -329 0
429 -431 -329 0
540 -472 -331 0
472 -540 -331 0
545 -534 -333 0
534 -545 -333 0
553 -549 -335 0
549 -553 -335 0
496 -482 -337 0
482 -496 -337 0
436 -523 -339 0
523 -436 -339 0
505 -467 -341 0
467 -505 -341 0
554 -495 -343 0
495 -554 -343 0
549 -464 -345 0
464 -549 -345 0
540 -434 -347 0
434 -540 -347 0
543 -544 -349 0
544 -543 -349 0
538 -512 -351 0
512 -538 -351 0
460 -475 -353 0
475 -460 -353 0
428 -500 -355 0
500 -428 -355 0
461 -430 -357 0
430 -461 -357 0
518 -424 -359 0
424 -518 -359 0
439 -430 -361 0
430 -439 -361 0
463 -525 -363 0
525 -463 -363 0
511 -515 -365 0
515 -511 -365 0
450 -457 -367 0
457 -450 -367 0
423 -472 -369 0
472 -423 -369 0
470 -469 -371 0
469 -470 -371 0
506 -420 -373 0
420 -506 -373 0
538 -512 -375 0
512 -538 -375 0
455 -483 -377 0
483 -455 -377 0
416 -520 -379 0
520 -416 -379 0
492 -520 -381 0
520 -492 -381 0
510 -439 -383 0
439 -510 -383 0
437 -533 -385 0
533 -437 -385 0
456 -491 -387 0
491 -456 -387 0
503 -435 -389 0
435 -503 -389 0
493 -437 -391 0
437 -493 -391 0
417 -426 -393 0
426 -417 -393 0
509 -477 -395 0
477 -509 -395 0
425 -429 -397 0
429 -425 -397 0
549 -464 -399 0
464 -549 -399 0
436 -523 -401 0
523 -436 -401 0
496 -421 -403 0
421 -496 -403 0
551 -524 -405 0
524 -551 -405 0
422 -504 -407 0
504 -422 -407 0
537 -438 -409 0
438 -537 -409 0
462 -429 -411 0
429 -462 -411 0

